(set-info :status unknown)
(declare-fun mem0 () (_ BitVec 8))
(declare-fun u_%Y () (_ BitVec 8))
(declare-fun |ana_isPowerOf2(%A)| () (_ BitVec 1))
(declare-fun %B () (_ BitVec 10))
(declare-fun %A () (_ BitVec 10))
(assert
 (let (($x11589 (= |ana_isPowerOf2(%A)| (_ bv1 1))))
 (let (($x15458 (bvult %B (_ bv10 10))))
 (let (($x322 (=> $x11589 (and (and (distinct %A (_ bv0 10)) true) (= (bvand %A (bvsub %A (_ bv1 10))) (_ bv0 10))))))
 (and $x322 $x15458 $x11589 (= u_%Y (_ bv1 8)) (and (distinct mem0 mem0) true))))))
(check-sat)
